46
75
60	17
59	21
58	12
57	13
56	10
55	13
54	18
53	22
52	14
51	17
50	13
49	16
48	18
47	11
46	16
45	8
44	16
43	24
42	9
41	20
40	16
39	14
38	17
37	12
36	16
35	18
34	16
33	16
32	19
31	22
30	24
29	17
28	18
27	11
26	13
25	16
24	13
23	17
22	24
21	21
20	17
19	18
18	13
17	19
16	14
15	21
